
Gurobi 13.0.1 (linux64) logging started Thu Mar 26 11:07:08 2026

Set parameter LogFile to value "logs_sparse/75B_3F_robust_gamma_0d25_theta_0d05199999999999999_2026-03-26_11h06m54s.log"
Set parameter MIPGap to value 0.005
Set parameter OptimalityTol to value 0.005
Gurobi Optimizer version 13.0.1 build v13.0.1rc0 (linux64 - "Linux Mint 22")

CPU model: 12th Gen Intel(R) Core(TM) i7-12700, instruction set [SSE2|AVX|AVX2]
Thread count: 20 physical cores, 20 logical processors, using up to 20 threads

Non-default parameters:
TimeLimit  3600
SoftMemLimit  12
MIPGap  0.005
OptimalityTol  0.005

Optimize a model with 45596 rows, 867096 columns and 2644377 nonzeros (Max)
Model fingerprint: 0x3a7faf09
Model has 832586 linear objective coefficients
Variable types: 12096 continuous, 855000 integer (855000 binary)
Coefficient statistics:
  Matrix range     [3e-05, 1e+05]
  Objective range  [1e+00, 3e+03]
  Bounds range     [1e+00, 1e+05]
  RHS range        [1e-02, 1e+05]

Presolve removed 23361 rows and 626499 columns
Presolve time: 1.50s
Presolved: 22235 rows, 240597 columns, 754072 nonzeros
Variable types: 5898 continuous, 234699 integer (234699 binary)
Found heuristic solution: objective -4.12338e+08
Deterministic concurrent LP optimizer: primal simplex, dual simplex, and barrier
Showing barrier log only...

Root barrier log...

Ordering time: 0.48s

Barrier statistics:
 AA' NZ     : 3.860e+05
 Factor NZ  : 3.362e+06 (roughly 130 MB of memory)
 Factor Ops : 9.985e+08 (less than 1 second per iteration)
 Threads    : 18

                  Objective                Residual
Iter       Primal          Dual         Primal    Dual     Compl     Time
   0  -8.69421247e+11  1.19654742e+09  2.52e+07 1.02e+03  1.05e+07     3s
   1  -9.16028137e+10  2.39275118e+09  2.66e+06 9.31e+02  1.13e+06     3s
   2  -1.20445616e+09  1.80111007e+09  3.71e+04 1.76e+02  1.97e+04     3s
   3   1.72045914e+08  1.07499608e+09  2.88e+03 1.84e+01  2.77e+03     3s
   4   2.49806360e+08  5.05123549e+08  1.02e+03 2.23e+00  7.51e+02     3s
   5   2.76846987e+08  4.02697693e+08  3.85e+02 1.05e+00  3.36e+02     3s
   6   2.86479363e+08  3.64190454e+08  1.66e+02 6.58e-01  1.91e+02     3s
   7   2.90737438e+08  3.21851525e+08  7.18e+01 2.45e-01  7.71e+01     3s
   8   2.92254425e+08  3.05631864e+08  3.97e+01 9.34e-02  3.45e+01     3s
   9   2.93606637e+08  2.98608825e+08  1.13e+01 3.20e-02  1.21e+01     3s
  10   2.93999648e+08  2.96186904e+08  3.75e+00 1.21e-02  4.90e+00     3s
  11   2.94115991e+08  2.95215679e+08  1.86e+00 5.51e-03  2.36e+00     3s
  12   2.94221564e+08  2.94772034e+08  5.01e-01 2.78e-03  1.14e+00     3s
  13   2.94277600e+08  2.94538962e+08  1.48e-01 1.28e-03  5.34e-01     3s
  14   2.94302772e+08  2.94452183e+08  7.38e-02 7.28e-04  3.05e-01     3s
  15   2.94325924e+08  2.94378753e+08  1.84e-02 2.56e-04  1.08e-01     4s
  16   2.94331039e+08  2.94367349e+08  8.55e-03 1.86e-04  7.41e-02     4s
  17   2.94334231e+08  2.94351709e+08  3.32e-03 8.84e-05  3.56e-02     4s
  18   2.94335288e+08  2.94346345e+08  1.76e-03 5.63e-05  2.25e-02     4s
  19   2.94335687e+08  2.94341317e+08  1.14e-03 2.58e-05  1.15e-02     4s
  20   2.94336228e+08  2.94339435e+08  4.45e-04 1.53e-05  6.54e-03     4s
  21   2.94336421e+08  2.94338687e+08  2.40e-04 1.11e-05  4.62e-03     4s
  22   2.94336486e+08  2.94338265e+08  1.56e-04 8.67e-06  3.63e-03     4s
  23   2.94336544e+08  2.94338028e+08  7.95e-05 7.37e-06  3.03e-03     4s
  24   2.94336557e+08  2.94337475e+08  6.65e-05 4.27e-06  1.87e-03     4s
  25   2.94336611e+08  2.94337089e+08  1.88e-05 2.24e-06  9.75e-04     4s
  26   2.94336629e+08  2.94336875e+08  7.61e-06 1.14e-06  5.02e-04     4s
  27   2.94336639e+08  2.94336768e+08  3.46e-06 5.93e-07  2.65e-04     4s
  28   2.94336640e+08  2.94336720e+08  2.40e-06 3.46e-07  1.62e-04     4s
  29   2.94336642e+08  2.94336693e+08  1.48e-06 2.17e-07  1.04e-04     4s
  30   2.94336643e+08  2.94336693e+08  1.12e-06 2.14e-07  1.00e-04     4s
  31   2.94336644e+08  2.94336653e+08  7.29e-07 1.95e-08  1.70e-05     4s
  32   2.94336646e+08  2.94336648e+08  4.92e-08 4.52e-09  3.34e-06     4s
  33   2.94336647e+08  2.94336648e+08  4.25e-08 4.25e-09  2.69e-06     4s

Barrier solved model in 33 iterations and 4.47 seconds (6.33 work units)
Optimal objective 2.94336647e+08

Crossover time: 0.43 seconds (0.41 work units)
Concurrent spin time: 0.14s

Solved with barrier

Root simplex log...

Iteration    Objective       Primal Inf.    Dual Inf.      Time
   10896    2.9433665e+08   0.000000e+00   0.000000e+00      5s

Root relaxation: objective 2.943366e+08, 10896 iterations, 3.15 seconds (3.50 work units)

    Nodes    |    Current Node    |     Objective Bounds      |     Work
 Expl Unexpl |  Obj  Depth IntInf | Incumbent    BestBd   Gap | It/Node Time

     0     0 2.9434e+08    0 7200 -4.123e+08 2.9434e+08   171%     -    6s
H    0     0                    -1231414.644 2.9434e+08      -     -    6s
H    0     0                    1.244232e+08 2.9434e+08   137%     -    6s
H    0     0                    1.516774e+08 2.9434e+08  94.1%     -    7s
H    0     0                    1.595055e+08 2.9434e+08  84.5%     -    8s
H    0     0                    1.612466e+08 2.9434e+08  82.5%     -    8s
H    0     0                    1.739239e+08 2.9434e+08  69.2%     -    9s
H    0     0                    1.742952e+08 2.9434e+08  68.9%     -   10s
H    0     0                    1.764958e+08 2.9434e+08  66.8%     -   11s
H    0     0                    1.852120e+08 2.9434e+08  58.9%     -   13s
H    0     0                    2.269405e+08 2.9434e+08  29.7%     -   15s
H    0     0                    2.327025e+08 2.9434e+08  26.5%     -   16s
     0     0 2.9434e+08    0 6250 2.3270e+08 2.9434e+08  26.5%     -  236s
H    0     0                    2.343814e+08 2.9434e+08  25.6%     -  256s
H    0     0                    2.343814e+08 2.9434e+08  25.6%     -  281s
H    0     0                    2.344306e+08 2.9434e+08  25.6%     -  325s
     0     0 2.9434e+08    0 6856 2.3443e+08 2.9434e+08  25.6%     -  793s
H    0     0                    2.361726e+08 2.9434e+08  24.6%     -  802s
H    0     0                    2.403062e+08 2.9434e+08  22.5%     -  833s
H    0     0                    2.558865e+08 2.9434e+08  15.0%     -  886s
H    0     0                    2.575210e+08 2.9434e+08  14.3%     -  922s
H    0     0                    2.576169e+08 2.9434e+08  14.3%     - 1001s
H    0     0                    2.576494e+08 2.9434e+08  14.2%     - 1001s
H    0     0                    2.577558e+08 2.9434e+08  14.2%     - 1001s
H    0     0                    2.578639e+08 2.9434e+08  14.1%     - 1008s
H    0     0                    2.578653e+08 2.9434e+08  14.1%     - 1024s
H    0     0                    2.579509e+08 2.9434e+08  14.1%     - 1024s
H    0     0                    2.581300e+08 2.9434e+08  14.0%     - 1029s
H    0     0                    2.583909e+08 2.9434e+08  13.9%     - 1029s
H    0     0                    2.586491e+08 2.9434e+08  13.8%     - 1053s
H    0     0                    2.586990e+08 2.9434e+08  13.8%     - 1073s
H    0     0                    2.586993e+08 2.9434e+08  13.8%     - 1073s
H    0     0                    2.587069e+08 2.9434e+08  13.8%     - 1077s
H    0     0                    2.587399e+08 2.9434e+08  13.8%     - 1077s
H    0     0                    2.588410e+08 2.9434e+08  13.7%     - 1088s
H    0     0                    2.589513e+08 2.9434e+08  13.7%     - 1092s
H    0     0                    2.590462e+08 2.9434e+08  13.6%     - 1092s
H    0     0                    2.590984e+08 2.9434e+08  13.6%     - 1112s
     0     0 2.9434e+08    0 6551 2.5910e+08 2.9434e+08  13.6%     - 1141s
     0     0 2.9434e+08    0 7051 2.5910e+08 2.9434e+08  13.6%     - 1414s
     0     0 2.9434e+08    0 6987 2.5910e+08 2.9434e+08  13.6%     - 1481s
     0     0 2.9433e+08    0 7387 2.5910e+08 2.9433e+08  13.6%     - 1748s
     0     0 2.9433e+08    0 7387 2.5910e+08 2.9433e+08  13.6%     - 1750s
     0     0 2.9433e+08    0 7278 2.5910e+08 2.9433e+08  13.6%     - 1751s
H    0     0                    2.592896e+08 2.9433e+08  13.5%     - 1904s
H    0     0                    2.595237e+08 2.9433e+08  13.4%     - 1911s
H    0     0                    2.596212e+08 2.9433e+08  13.4%     - 1919s
H    0     0                    2.598037e+08 2.9433e+08  13.3%     - 1923s
     0     2 2.9433e+08    0 7278 2.5980e+08 2.9433e+08  13.3%     - 2109s
     1     4 2.9433e+08    1 6934 2.5980e+08 2.9433e+08  13.3%  1904 2184s
     3     6 2.9433e+08    2 5029 2.5980e+08 2.9433e+08  13.3% 74498 2290s
     5     9 2.9433e+08    3 5275 2.5980e+08 2.9433e+08  13.3% 62484 2524s
H    8    15                    2.599447e+08 2.9433e+08  13.2% 88181 2830s
H   10    15                    2.599448e+08 2.9433e+08  13.2% 77039 2830s

Cutting planes:
  MIR: 14
  Flow cover: 79
  RLT: 3206
  Relax-and-lift: 88

Explored 14 nodes (2390057 simplex iterations) in 3600.11 seconds (5594.08 work units)
Thread count was 20 (of 20 available processors)

Solution count 10: 2.59945e+08 2.59945e+08 2.59524e+08 ... 2.58707e+08

Time limit reached
Best objective 2.599448244045e+08, best bound 2.943348323810e+08, gap 13.2297%
